(declare-fun bvlambda_7_ () (_ BitVec 1))
(declare-fun a73 () (Array (_ BitVec 1) (_ BitVec 3)))
(assert
(let (($e1 (_ bv0 1)))
(let (($e11 (_ bv0 2)))
(let (($e14 (_ bv0 9)))
(let (($e26 (_ bv6 3)))
(let (($e40 (_ bv16368 14)))
(let (($e43 (_ bv0 10)))
(let (($e98                $e40               ))
(let (($e99 ((_ extract 12 0) $e98)))
(let (($e102                $e14              ))
(let (($e103         $e102             ))
(let (($e104                          $e103       ))
(let (($e107 (   extract        $e104)))
(let (($e108               $e107                ))
(let (($e109 (concat        $e11         $e108 )))
(let (($e111                          $e109 ))
(let (($e112 (store a73 (bvnot $e1)        $e26 )))
(let (($e113 (store $e112 bvlambda_7_ $e111)))
(let (($e114 (select $e113 (bvnot $e1))))
(let (($e115 (concat $e43 $e114)))
                  (bvult $e115 $e99)
                                                                                                                                                                                                                                                                                                                                                                                                                                                                                                                                                                                                                                                                                                                                                                                                                                                                                             ))))) )))  )))  ))                                  )  )             )           )  )         ))
